Examples/andornotgate.smt2
; SMT-LIBv2 description generated by Yosys 0.8+106 (git sha1 245724a, clang 3.4-1ubuntu3 -fPIC -Os)
; yosys-smt2-module andornotgate
(declare-sort |andornotgate_s| 0)
(declare-fun |andornotgate_is| (|andornotgate_s|) Bool)
; yosys-smt2-input VL_RESET 1
(declare-fun |andornotgate#0| (|andornotgate_s|) Bool) ; \VL_RESET
(define-fun |andornotgate_n VL_RESET| ((state |andornotgate_s|)) Bool (|andornotgate#0| state))
; yosys-smt2-input VL_TICK 1
; yosys-smt2-clock VL_TICK posedge
(declare-fun |andornotgate#1| (|andornotgate_s|) Bool) ; \VL_TICK
(define-fun |andornotgate_n VL_TICK| ((state |andornotgate_s|)) Bool (|andornotgate#1| state))
; yosys-smt2-input a 1
(declare-fun |andornotgate#2| (|andornotgate_s|) Bool) ; \a
(define-fun |andornotgate_n a| ((state |andornotgate_s|)) Bool (|andornotgate#2| state))
; yosys-smt2-input clk 1
(declare-fun |andornotgate#3| (|andornotgate_s|) Bool) ; \clk
(define-fun |andornotgate_n clk| ((state |andornotgate_s|)) Bool (|andornotgate#3| state))
; yosys-smt2-output x 1
; yosys-smt2-register x 1
(declare-fun |andornotgate#4| (|andornotgate_s|) (_ BitVec 1)) ; \x
(define-fun |andornotgate_n x| ((state |andornotgate_s|)) Bool (= ((_ extract 0 0) (|andornotgate#4| state)) #b1))
; yosys-smt2-output y 1
; yosys-smt2-register y 1
(declare-fun |andornotgate#5| (|andornotgate_s|) (_ BitVec 1)) ; \y
(define-fun |andornotgate_n y| ((state |andornotgate_s|)) Bool (= ((_ extract 0 0) (|andornotgate#5| state)) #b1))
; yosys-smt2-output z 1
; yosys-smt2-register z 1
(declare-fun |andornotgate#6| (|andornotgate_s|) (_ BitVec 1)) ; \z
(define-fun |andornotgate_n z| ((state |andornotgate_s|)) Bool (= ((_ extract 0 0) (|andornotgate#6| state)) #b1))
(define-fun |andornotgate#7| ((state |andornotgate_s|)) Bool (and (or  (= ((_ extract 0 0) (|andornotgate#6| state)) #b1) false) (or  (|andornotgate#2| state) false))) ; $logic_and$andornotgate.vl:23$4_Y
(define-fun |andornotgate#8| ((state |andornotgate_s|)) (_ BitVec 1) (ite (|andornotgate#3| state) (ite (|andornotgate#7| state) #b1 #b0) (|andornotgate#6| state))) ; $0\z[0:0]
(define-fun |andornotgate#9| ((state |andornotgate_s|)) Bool (or  (= ((_ extract 0 0) (|andornotgate#5| state)) #b1) false  (|andornotgate#2| state) false)) ; $logic_or$andornotgate.vl:22$3_Y
(define-fun |andornotgate#10| ((state |andornotgate_s|)) (_ BitVec 1) (ite (|andornotgate#3| state) (ite (|andornotgate#9| state) #b1 #b0) (|andornotgate#5| state))) ; $0\y[0:0]
(define-fun |andornotgate#11| ((state |andornotgate_s|)) Bool (not (or  (= ((_ extract 0 0) (|andornotgate#4| state)) #b1) false))) ; $logic_not$andornotgate.vl:21$2_Y
(define-fun |andornotgate#12| ((state |andornotgate_s|)) (_ BitVec 1) (ite (|andornotgate#3| state) (ite (|andornotgate#11| state) #b1 #b0) (|andornotgate#4| state))) ; $0\x[0:0]
(define-fun |andornotgate_a| ((state |andornotgate_s|)) Bool true)
(define-fun |andornotgate_u| ((state |andornotgate_s|)) Bool true)
(define-fun |andornotgate_i| ((state |andornotgate_s|)) Bool (and
  (= (= ((_ extract 0 0) (|andornotgate#4| state)) #b1) false) ; x
  (= (= ((_ extract 0 0) (|andornotgate#5| state)) #b1) true) ; y
  (= (= ((_ extract 0 0) (|andornotgate#6| state)) #b1) false) ; z
))
(define-fun |andornotgate_h| ((state |andornotgate_s|)) Bool true)
(define-fun |andornotgate_t| ((state |andornotgate_s|) (next_state |andornotgate_s|)) Bool (and
  (= (|andornotgate#8| state) (|andornotgate#6| next_state)) ; $procdff$19 \z
  (= (|andornotgate#10| state) (|andornotgate#5| next_state)) ; $procdff$18 \y
  (= (|andornotgate#12| state) (|andornotgate#4| next_state)) ; $procdff$17 \x
)) ; end of module andornotgate
; yosys-smt2-topmod andornotgate
; end of yosys output
